
Gurobi 10.0.1 (win64) logging started Sat Aug 26 14:36:09 2023

Set parameter LogFile to value "results//log/BA_13_makespan.log"
Gurobi Optimizer version 10.0.1 build v10.0.1rc0 (win64)

CPU model: AMD Ryzen 7 3700X 8-Core Processor, instruction set [SSE2|AVX|AVX2]
Thread count: 8 physical cores, 16 logical processors, using up to 16 threads

Optimize a model with 621 rows, 433 columns and 2588 nonzeros
Model fingerprint: 0xaf65f3f1
Variable types: 54 continuous, 379 integer (378 binary)
Coefficient statistics:
  Matrix range     [1e+00, 1e+06]
  Objective range  [1e+00, 1e+00]
  Bounds range     [1e+00, 1e+00]
  RHS range        [1e+00, 3e+06]
Found heuristic solution: objective 152.0000000
Presolve removed 75 rows and 174 columns
Presolve time: 0.00s
Presolved: 546 rows, 259 columns, 2488 nonzeros
Variable types: 54 continuous, 205 integer (204 binary)

Root relaxation: objective 4.400000e+01, 75 iterations, 0.00 seconds (0.00 work units)

    Nodes    |    Current Node    |     Objective Bounds      |     Work
 Expl Unexpl |  Obj  Depth IntInf | Incumbent    BestBd   Gap | It/Node Time

     0     0   44.00000    0    9  152.00000   44.00000  71.1%     -    0s
H    0     0                     123.0000000   44.00000  64.2%     -    0s
H    0     0                     115.0000000   44.00000  61.7%     -    0s
     0     0   44.00000    0   15  115.00000   44.00000  61.7%     -    0s
H    0     0                     114.0000000   44.00000  61.4%     -    0s
H    0     0                     111.0000000   44.00000  60.4%     -    0s
     0     0   44.00000    0   21  111.00000   44.00000  60.4%     -    0s
     0     0   44.46154    0   26  111.00000   44.46154  59.9%     -    0s
     0     0   45.00000    0   17  111.00000   45.00000  59.5%     -    0s
     0     0   45.00000    0   18  111.00000   45.00000  59.5%     -    0s
     0     0   45.00000    0   24  111.00000   45.00000  59.5%     -    0s
     0     0   45.00000    0   21  111.00000   45.00000  59.5%     -    0s
     0     0   45.19884    0   16  111.00000   45.19884  59.3%     -    0s
     0     0   45.34169    0   14  111.00000   45.34169  59.2%     -    0s
     0     0   45.34169    0   15  111.00000   45.34169  59.2%     -    0s
H    0     0                     110.0000000   45.34169  58.8%     -    0s
     0     0   45.34169    0   19  110.00000   45.34169  58.8%     -    0s
     0     0   45.34169    0    8  110.00000   45.34169  58.8%     -    0s
H    0     0                     107.0000000   45.34169  57.6%     -    0s
     0     0   45.34169    0   17  107.00000   45.34169  57.6%     -    0s
     0     0   45.34169    0   16  107.00000   45.34169  57.6%     -    0s
     0     0   45.34169    0   12  107.00000   45.34169  57.6%     -    0s
     0     0   45.34169    0   16  107.00000   45.34169  57.6%     -    0s
     0     0   45.34169    0   14  107.00000   45.34169  57.6%     -    0s
H    0     0                     103.0000000   45.34169  56.0%     -    0s
     0     2   45.34169    0   10  103.00000   45.34169  56.0%     -    0s
H  185   149                     100.0000000   46.00000  54.0%  15.6    0s
H  258   208                      99.0000000   46.00000  53.5%  12.8    0s
H 1568   828                      97.0000000   47.00000  51.5%   7.8    0s
H 1644   869                      96.0000000   47.03640  51.0%   7.9    0s
H 1658   806                      89.0000000   47.54288  46.6%   8.0    0s
H 3133  1263                      86.0000000   48.30301  43.8%   1.3    1s
 48036 18062   57.00000   57   18   86.00000   50.00000  41.9%   6.3    5s
 230528 83626   55.00000   64   24   86.00000   53.02521  38.3%   7.7   10s
*241193 84095              87      84.0000000   53.46698  36.3%   7.7   10s
 418376 122329   59.00000   74   18   84.00000   56.00000  33.3%   7.8   15s
 585393 148204   77.00000   68   10   84.00000   58.00000  31.0%   8.0   20s
 750030 168776   77.00000   71   11   84.00000   60.00000  28.6%   8.1   25s
 920905 183813 infeasible   81        84.00000   61.00000  27.4%   8.2   30s
 1058462 191039 infeasible   74        84.00000   62.00000  26.2%   8.3   35s
 1212010 197146   66.00000   71   11   84.00000   64.00000  23.8%   8.4   40s
 1364036 194559   75.33333   75   12   84.00000   65.00000  22.6%   8.5   45s
 1499927 187986 infeasible   73        84.00000   66.00000  21.4%   8.6   50s
 1641648 177473   77.00000   75    9   84.00000   68.00000  19.0%   8.7   55s
 1776410 160904 infeasible   69        84.00000   69.00000  17.9%   8.8   60s
 1909726 140881 infeasible   67        84.00000   71.00000  15.5%   8.8   65s
 2051775 115426   80.00000   73   10   84.00000   73.00000  13.1%   8.8   70s
 2193150 81501 infeasible   74        84.00000   76.00000  9.52%   8.7   75s
 2357714 29976 infeasible   84        84.00000   80.00000  4.76%   8.6   80s

Cutting planes:
  Learned: 3
  Gomory: 7
  MIR: 1
  Flow cover: 9

Explored 2417864 nodes (20482306 simplex iterations) in 81.65 seconds (65.77 work units)
Thread count was 16 (of 16 available processors)

Solution count 10: 84 84 86 ... 107

Optimal solution found (tolerance 1.00e-04)
Best objective 8.400000000000e+01, best bound 8.400000000000e+01, gap 0.0000%
Warning: constraint name "precedence between 0,1 to 0,0 if x_[j,l,h,z,i]=1" has a space
Warning: constraint name "precedence between 0,1 to 0,0 if x_[j,l,h,z,i]=1" has a space
Warning: default constraint names used to write mps file
